experiment/data/hgs-res/Vrp-Set-X-n317/Vrp-Set-X-n317-hgs/0.hgs1.vrp
NAME : 0
COMMENT : CVRP Instance
TYPE : CVRP
DIMENSION : 317
EDGE_WEIGHT_TYPE : EUC_2D
CAPACITY : 6
NODE_COORD_SECTION
1	0.0	0.0
2	971.0	544.0
3	564.0	976.0
4	266.0	4.0
5	395.0	95.0
6	379.0	271.0
7	936.0	538.0
8	980.0	578.0
9	242.0	92.0
10	476.0	74.0
11	247.0	159.0
12	359.0	108.0
13	473.0	941.0
14	490.0	947.0
15	548.0	950.0
16	389.0	864.0
17	916.0	664.0
18	212.0	91.0
19	415.0	182.0
20	961.0	553.0
21	423.0	232.0
22	596.0	931.0
23	955.0	566.0
24	534.0	93.0
25	252.0	6.0
26	950.0	580.0
27	517.0	950.0
28	942.0	618.0
29	636.0	981.0
30	629.0	809.0
31	508.0	35.0
32	108.0	130.0
33	391.0	19.0
34	208.0	183.0
35	991.0	680.0
36	428.0	48.0
37	272.0	220.0
38	931.0	581.0
39	327.0	128.0
40	966.0	514.0
41	313.0	202.0
42	267.0	1.0
43	404.0	925.0
44	985.0	594.0
45	895.0	429.0
46	348.0	12.0
47	316.0	258.0
48	238.0	20.0
49	970.0	490.0
50	854.0	586.0
51	293.0	104.0
52	628.0	919.0
53	880.0	597.0
54	353.0	241.0
55	753.0	728.0
56	291.0	93.0
57	993.0	439.0
58	382.0	125.0
59	230.0	36.0
60	984.0	471.0
61	489.0	23.0
62	277.0	137.0
63	593.0	171.0
64	378.0	204.0
65	411.0	87.0
66	207.0	85.0
67	538.0	991.0
68	906.0	631.0
69	343.0	72.0
70	445.0	68.0
71	673.0	268.0
72	576.0	951.0
73	388.0	66.0
74	953.0	504.0
75	434.0	145.0
76	530.0	11.0
77	632.0	879.0
78	541.0	968.0
79	353.0	851.0
80	629.0	868.0
81	593.0	896.0
82	936.0	411.0
83	272.0	40.0
84	276.0	93.0
85	469.0	169.0
86	359.0	894.0
87	548.0	998.0
88	52.0	69.0
89	397.0	58.0
90	507.0	145.0
91	451.0	162.0
92	646.0	996.0
93	532.0	906.0
94	220.0	126.0
95	536.0	831.0
96	482.0	212.0
97	137.0	53.0
98	511.0	991.0
99	978.0	506.0
100	300.0	111.0
101	907.0	711.0
102	908.0	488.0
103	222.0	137.0
104	266.0	48.0
105	423.0	67.0
106	268.0	125.0
107	434.0	25.0
108	548.0	982.0
109	511.0	888.0
110	371.0	256.0
111	440.0	179.0
112	331.0	82.0
113	965.0	439.0
114	545.0	968.0
115	447.0	40.0
116	785.0	664.0
117	915.0	669.0
118	468.0	98.0
119	247.0	6.0
120	271.0	70.0
121	260.0	110.0
122	902.0	679.0
123	926.0	874.0
124	587.0	988.0
125	368.0	419.0
126	351.0	158.0
127	967.0	685.0
128	559.0	968.0
129	278.0	56.0
130	877.0	507.0
131	353.0	164.0
132	984.0	540.0
133	380.0	89.0
134	886.0	376.0
135	943.0	408.0
136	420.0	204.0
137	386.0	78.0
138	219.0	18.0
139	497.0	961.0
140	542.0	965.0
141	718.0	869.0
142	297.0	45.0
143	414.0	69.0
144	606.0	959.0
145	575.0	99.0
146	330.0	101.0
147	364.0	74.0
148	257.0	22.0
149	371.0	64.0
150	600.0	994.0
151	951.0	536.0
152	534.0	896.0
153	297.0	96.0
154	467.0	149.0
155	438.0	917.0
156	385.0	883.0
157	233.0	239.0
158	481.0	945.0
159	414.0	128.0
160	602.0	752.0
161	592.0	151.0
162	267.0	82.0
163	587.0	946.0
164	728.0	991.0
165	242.0	136.0
166	292.0	9.0
167	916.0	480.0
168	494.0	918.0
169	2.0	149.0
170	24.0	105.0
171	933.0	577.0
172	227.0	49.0
173	651.0	947.0
174	991.0	512.0
175	805.0	704.0
176	253.0	66.0
177	628.0	824.0
178	199.0	18.0
179	833.0	534.0
180	633.0	864.0
181	343.0	42.0
182	565.0	991.0
183	603.0	996.0
184	404.0	30.0
185	434.0	92.0
186	822.0	465.0
187	393.0	81.0
188	351.0	78.0
189	390.0	56.0
190	536.0	967.0
191	553.0	985.0
192	652.0	868.0
193	472.0	900.0
194	824.0	545.0
195	370.0	189.0
196	196.0	21.0
197	524.0	974.0
198	590.0	878.0
199	551.0	951.0
200	480.0	48.0
201	384.0	185.0
202	327.0	228.0
203	567.0	966.0
204	537.0	964.0
205	929.0	577.0
206	491.0	141.0
207	336.0	12.0
208	496.0	953.0
209	149.0	57.0
210	394.0	63.0
211	250.0	252.0
212	238.0	63.0
213	245.0	222.0
214	263.0	50.0
215	231.0	37.0
216	512.0	13.0
217	868.0	481.0
218	994.0	635.0
219	697.0	87.0
220	989.0	535.0
221	462.0	954.0
222	355.0	240.0
223	335.0	89.0
224	817.0	544.0
225	501.0	154.0
226	196.0	66.0
227	389.0	36.0
228	413.0	62.0
229	277.0	111.0
230	245.0	95.0
231	878.0	469.0
232	407.0	109.0
233	326.0	52.0
234	999.0	601.0
235	974.0	433.0
236	578.0	969.0
237	548.0	784.0
238	519.0	21.0
239	436.0	135.0
240	986.0	436.0
241	483.0	19.0
242	420.0	197.0
243	417.0	122.0
244	825.0	609.0
245	347.0	96.0
246	967.0	530.0
247	749.0	542.0
248	271.0	20.0
249	307.0	72.0
250	420.0	130.0
251	821.0	398.0
252	147.0	97.0
253	950.0	512.0
254	394.0	190.0
255	962.0	584.0
256	934.0	530.0
257	611.0	926.0
258	323.0	185.0
259	966.0	530.0
260	378.0	189.0
261	334.0	189.0
262	340.0	77.0
263	265.0	136.0
264	303.0	315.0
265	533.0	852.0
266	562.0	977.0
267	995.0	477.0
268	862.0	649.0
269	379.0	190.0
270	935.0	565.0
271	178.0	11.0
272	465.0	237.0
273	214.0	179.0
274	479.0	913.0
275	903.0	530.0
276	379.0	102.0
277	268.0	8.0
278	922.0	511.0
279	403.0	33.0
280	289.0	71.0
281	474.0	196.0
282	374.0	90.0
283	557.0	25.0
284	957.0	581.0
285	134.0	103.0
286	554.0	116.0
287	392.0	111.0
288	200.0	392.0
289	929.0	514.0
290	521.0	905.0
291	341.0	210.0
292	394.0	77.0
293	339.0	130.0
294	938.0	635.0
295	315.0	258.0
296	970.0	710.0
297	376.0	48.0
298	402.0	128.0
299	954.0	450.0
300	528.0	302.0
301	433.0	137.0
302	353.0	113.0
303	611.0	991.0
304	235.0	12.0
305	544.0	988.0
306	958.0	520.0
307	521.0	76.0
308	334.0	23.0
309	264.0	63.0
310	591.0	913.0
311	532.0	972.0
312	589.0	956.0
313	568.0	972.0
314	983.0	621.0
315	418.0	817.0
316	312.0	39.0
317	334.0	176.0
DEMAND_SECTION
1	0
2	1
3	1
4	1
5	1
6	1
7	1
8	1
9	1
10	1
11	1
12	1
13	1
14	1
15	1
16	1
17	1
18	1
19	1
20	1
21	1
22	1
23	1
24	1
25	1
26	1
27	1
28	1
29	1
30	1
31	1
32	1
33	1
34	1
35	1
36	1
37	1
38	1
39	1
40	1
41	1
42	1
43	1
44	1
45	1
46	1
47	1
48	1
49	1
50	1
51	1
52	1
53	1
54	1
55	1
56	1
57	1
58	1
59	1
60	1
61	1
62	1
63	1
64	1
65	1
66	1
67	1
68	1
69	1
70	1
71	1
72	1
73	1
74	1
75	1
76	1
77	1
78	1
79	1
80	1
81	1
82	1
83	1
84	1
85	1
86	1
87	1
88	1
89	1
90	1
91	1
92	1
93	1
94	1
95	1
96	1
97	1
98	1
99	1
100	1
101	1
102	1
103	1
104	1
105	1
106	1
107	1
108	1
109	1
110	1
111	1
112	1
113	1
114	1
115	1
116	1
117	1
118	1
119	1
120	1
121	1
122	1
123	1
124	1
125	1
126	1
127	1
128	1
129	1
130	1
131	1
132	1
133	1
134	1
135	1
136	1
137	1
138	1
139	1
140	1
141	1
142	1
143	1
144	1
145	1
146	1
147	1
148	1
149	1
150	1
151	1
152	1
153	1
154	1
155	1
156	1
157	1
158	1
159	1
160	1
161	1
162	1
163	1
164	1
165	1
166	1
167	1
168	1
169	1
170	1
171	1
172	1
173	1
174	1
175	1
176	1
177	1
178	1
179	1
180	1
181	1
182	1
183	1
184	1
185	1
186	1
187	1
188	1
189	1
190	1
191	1
192	1
193	1
194	1
195	1
196	1
197	1
198	1
199	1
200	1
201	1
202	1
203	1
204	1
205	1
206	1
207	1
208	1
209	1
210	1
211	1
212	1
213	1
214	1
215	1
216	1
217	1
218	1
219	1
220	1
221	1
222	1
223	1
224	1
225	1
226	1
227	1
228	1
229	1
230	1
231	1
232	1
233	1
234	1
235	1
236	1
237	1
238	1
239	1
240	1
241	1
242	1
243	1
244	1
245	1
246	1
247	1
248	1
249	1
250	1
251	1
252	1
253	1
254	1
255	1
256	1
257	1
258	1
259	1
260	1
261	1
262	1
263	1
264	1
265	1
266	1
267	1
268	1
269	1
270	1
271	1
272	1
273	1
274	1
275	1
276	1
277	1
278	1
279	1
280	1
281	1
282	1
283	1
284	1
285	1
286	1
287	1
288	1
289	1
290	1
291	1
292	1
293	1
294	1
295	1
296	1
297	1
298	1
299	1
300	1
301	1
302	1
303	1
304	1
305	1
306	1
307	1
308	1
309	1
310	1
311	1
312	1
313	1
314	1
315	1
316	1
317	1
DEPOT_SECTION
1
-1
EOF
