experiment/data/hgs-res/Vrp-Set-X-n317/Vrp-Set-X-n317-hgs/0.hgs1.tour
Route #1: 24 41 3 276 247 147
Route #2: 199 30 237 215 60 240
Route #3: 177 137 47 118 303 270
Route #4: 45 32 183 278 226 180
Route #5: 165 206 307 315 141 82
Route #6: 9 306 23 144 282 75
Route #7: 64 184 69 35 114 106
Route #8: 296 188 88 209 72 148
Route #9: 136 186 291 142 104 227
Route #10: 195 58 214 171 211 225
Route #11: 279 248 111 261 68 232
Route #12: 213 103 128 119 308 175
Route #13: 222 244 281 132 146 187
Route #14: 275 286 158 242 231 4
Route #15: 90 153 224 89 205 117
Route #16: 299 70 218 62 160 285
Route #17: 297 249 238 300 74 57
Route #18: 161 83 55 152 50 228
Route #19: 145 11 301 292 38 99
Route #20: 110 84 280 95 271 20
Route #21: 262 61 105 120 229 8
Route #22: 44 298 112 134 81 133
Route #23: 234 239 56 59 266 48
Route #24: 63 135 241 18 253 200
Route #25: 125 130 259 268 194 316
Route #26: 96 208 65 17 251 284
Route #27: 185 216 101 166 230 250
Route #28: 252 305 258 245 39 73
Route #29: 98 173 219 131 1 150
Route #30: 277 288 255 6 274 129
Route #31: 269 22 254 283 25 170
Route #32: 313 217 233 43 7 19
Route #33: 257 260 290 201 40 36
Route #34: 52 67 293 27 37 204
Route #35: 33 272 10 164 102 93
Route #36: 246 243 49 178 193 223
Route #37: 294 46 5 109 221 53
Route #38: 16 126 34 295 122 54
Route #39: 115 174 100 121 116 267
Route #40: 212 156 210 263 124 287
Route #41: 236 79 179 176 29 159
Route #42: 191 172 28 91 163 140
Route #43: 76 51 256 309 80 197
Route #44: 235 123 149 182 302 143
Route #45: 21 162 311 71 198 14
Route #46: 94 264 151 92 289 108
Route #47: 202 312 2 181 265 127
Route #48: 310 189 77 113 139 203
Route #49: 97 66 304 86 190 107
Route #50: 167 26 196 138 207 13
Route #51: 154 220 12 157 273 192
Route #52: 78 85 42 155 15 314
Route #53: 169 168 31 87
Cost 78393.7
